language ESSENCE' 1.0

$ Number of shops, and their demands.
letting nShops = 4
letting demands = [88, 26, 27, 22]

$ Number of suppliers, their package sizes, and their package costs.
letting nSuppliers = 4
letting packageSize = [2, 2, 5, 5]
letting packageCost= [10, 6, 16, 18]

$ The amount of excess stock that each store can store
letting excessStockLimit = 5